c 0.012718439102172852 (encode time in sec)
p cnf 241 1048
1 2 3 9 0
1 2 -3 10 0
1 -2 3 6 0
1 -2 -3 4 0
-1 2 3 5 0
-1 2 -3 7 0
-1 -2 3 8 0
-1 -2 -3 9 0
11 12 13 21 0
11 12 -13 15 0
11 -12 13 14 0
11 -12 -13 16 0
-11 12 13 17 0
-11 12 -13 18 0
-11 -12 13 19 0
-11 -12 -13 20 0
22 23 24 32 0
22 23 -24 25 0
22 -23 24 28 0
22 -23 -24 26 0
-22 23 24 27 0
-22 23 -24 29 0
-22 -23 24 30 0
-22 -23 -24 31 0
33 34 35 1 2 3 11 12 13 36 0
33 34 35 1 2 3 11 12 -13 89 0
33 34 35 1 2 3 11 -12 13 36 0
33 34 35 1 2 3 11 -12 -13 64 0
33 34 35 1 2 3 -11 12 13 78 0
33 34 35 1 2 3 -11 12 -13 78 0
33 34 35 1 2 3 -11 -12 13 36 0
33 34 35 1 2 3 -11 -12 -13 36 0
33 34 35 1 2 -3 11 12 13 36 0
33 34 35 1 2 -3 11 12 -13 53 0
33 34 35 1 2 -3 11 -12 13 37 0
33 34 35 1 2 -3 11 -12 -13 54 0
33 34 35 1 2 -3 -11 12 13 65 0
33 34 35 1 2 -3 -11 12 -13 65 0
33 34 35 1 2 -3 -11 -12 13 103 0
33 34 35 1 2 -3 -11 -12 -13 36 0
33 34 35 1 -2 3 11 12 13 103 0
33 34 35 1 -2 3 11 12 -13 74 0
33 34 35 1 -2 3 11 -12 13 84 0
33 34 35 1 -2 3 11 -12 -13 76 0
33 34 35 1 -2 3 -11 12 13 75 0
33 34 35 1 -2 3 -11 12 -13 84 0
33 34 35 1 -2 3 -11 -12 13 64 0
33 34 35 1 -2 3 -11 -12 -13 113 0
33 34 35 1 -2 -3 11 12 13 64 0
33 34 35 1 -2 -3 11 12 -13 104 0
33 34 35 1 -2 -3 11 -12 13 142 0
33 34 35 1 -2 -3 11 -12 -13 48 0
33 34 35 1 -2 -3 -11 12 13 109 0
33 34 35 1 -2 -3 -11 12 -13 77 0
33 34 35 1 -2 -3 -11 -12 13 50 0
33 34 35 1 -2 -3 -11 -12 -13 36 0
33 34 35 -1 2 3 11 12 13 78 0
33 34 35 -1 2 3 11 12 -13 99 0
33 34 35 -1 2 3 11 -12 13 127 0
33 34 35 -1 2 3 11 -12 -13 88 0
33 34 35 -1 2 3 -11 12 13 100 0
33 34 35 -1 2 3 -11 12 -13 44 0
33 34 35 -1 2 3 -11 -12 13 37 0
33 34 35 -1 2 3 -11 -12 -13 113 0
33 34 35 -1 2 -3 11 12 13 55 0
33 34 35 -1 2 -3 11 12 -13 141 0
33 34 35 -1 2 -3 11 -12 13 138 0
33 34 35 -1 2 -3 11 -12 -13 51 0
33 34 35 -1 2 -3 -11 12 13 72 0
33 34 35 -1 2 -3 -11 12 -13 56 0
33 34 35 -1 2 -3 -11 -12 13 78 0
33 34 35 -1 2 -3 -11 -12 -13 36 0
33 34 35 -1 -2 3 11 12 13 103 0
33 34 35 -1 -2 3 11 12 -13 78 0
33 34 35 -1 -2 3 11 -12 13 56 0
33 34 35 -1 -2 3 11 -12 -13 114 0
33 34 35 -1 -2 3 -11 12 13 131 0
33 34 35 -1 -2 3 -11 12 -13 50 0
33 34 35 -1 -2 3 -11 -12 13 113 0
33 34 35 -1 -2 3 -11 -12 -13 36 0
33 34 35 -1 -2 -3 11 12 13 36 0
33 34 35 -1 -2 -3 11 12 -13 36 0
33 34 35 -1 -2 -3 11 -12 13 113 0
33 34 35 -1 -2 -3 11 -12 -13 55 0
33 34 35 -1 -2 -3 -11 12 13 78 0
33 34 35 -1 -2 -3 -11 12 -13 103 0
33 34 35 -1 -2 -3 -11 -12 13 36 0
33 34 35 -1 -2 -3 -11 -12 -13 36 0
33 34 -35 1 2 3 11 12 13 36 0
33 34 -35 1 2 3 11 12 -13 113 0
33 34 -35 1 2 3 11 -12 13 36 0
33 34 -35 1 2 3 11 -12 -13 115 0
33 34 -35 1 2 3 -11 12 13 78 0
33 34 -35 1 2 3 -11 12 -13 78 0
33 34 -35 1 2 3 -11 -12 13 36 0
33 34 -35 1 2 3 -11 -12 -13 36 0
33 34 -35 1 2 -3 11 12 13 36 0
33 34 -35 1 2 -3 11 12 -13 61 0
33 34 -35 1 2 -3 11 -12 13 38 0
33 34 -35 1 2 -3 11 -12 -13 54 0
33 34 -35 1 2 -3 -11 12 13 65 0
33 34 -35 1 2 -3 -11 12 -13 65 0
33 34 -35 1 2 -3 -11 -12 13 103 0
33 34 -35 1 2 -3 -11 -12 -13 36 0
33 34 -35 1 -2 3 11 12 13 121 0
33 34 -35 1 -2 3 11 12 -13 68 0
33 34 -35 1 -2 3 11 -12 13 128 0
33 34 -35 1 -2 3 11 -12 -13 76 0
33 34 -35 1 -2 3 -11 12 13 75 0
33 34 -35 1 -2 3 -11 12 -13 84 0
33 34 -35 1 -2 3 -11 -12 13 64 0
33 34 -35 1 -2 3 -11 -12 -13 113 0
33 34 -35 1 -2 -3 11 12 13 69 0
33 34 -35 1 -2 -3 11 12 -13 60 0
33 34 -35 1 -2 -3 11 -12 13 142 0
33 34 -35 1 -2 -3 11 -12 -13 48 0
33 34 -35 1 -2 -3 -11 12 13 109 0
33 34 -35 1 -2 -3 -11 12 -13 77 0
33 34 -35 1 -2 -3 -11 -12 13 50 0
33 34 -35 1 -2 -3 -11 -12 -13 36 0
33 34 -35 -1 2 3 11 12 13 78 0
33 34 -35 -1 2 3 11 12 -13 50 0
33 34 -35 -1 2 3 11 -12 13 127 0
33 34 -35 -1 2 3 11 -12 -13 88 0
33 34 -35 -1 2 3 -11 12 13 100 0
33 34 -35 -1 2 3 -11 12 -13 44 0
33 34 -35 -1 2 3 -11 -12 13 37 0
33 34 -35 -1 2 3 -11 -12 -13 113 0
33 34 -35 -1 2 -3 11 12 13 66 0
33 34 -35 -1 2 -3 11 12 -13 141 0
33 34 -35 -1 2 -3 11 -12 13 138 0
33 34 -35 -1 2 -3 11 -12 -13 51 0
33 34 -35 -1 2 -3 -11 12 13 72 0
33 34 -35 -1 2 -3 -11 12 -13 56 0
33 34 -35 -1 2 -3 -11 -12 13 78 0
33 34 -35 -1 2 -3 -11 -12 -13 36 0
33 34 -35 -1 -2 3 11 12 13 103 0
33 34 -35 -1 -2 3 11 12 -13 78 0
33 34 -35 -1 -2 3 11 -12 13 56 0
33 34 -35 -1 -2 3 11 -12 -13 114 0
33 34 -35 -1 -2 3 -11 12 13 131 0
33 34 -35 -1 -2 3 -11 12 -13 50 0
33 34 -35 -1 -2 3 -11 -12 13 113 0
33 34 -35 -1 -2 3 -11 -12 -13 36 0
33 34 -35 -1 -2 -3 11 12 13 36 0
33 34 -35 -1 -2 -3 11 12 -13 36 0
33 34 -35 -1 -2 -3 11 -12 13 113 0
33 34 -35 -1 -2 -3 11 -12 -13 55 0
33 34 -35 -1 -2 -3 -11 12 13 78 0
33 34 -35 -1 -2 -3 -11 12 -13 103 0
33 34 -35 -1 -2 -3 -11 -12 13 36 0
33 34 -35 -1 -2 -3 -11 -12 -13 36 0
33 -34 35 1 2 3 11 12 13 36 0
33 -34 35 1 2 3 11 12 -13 113 0
33 -34 35 1 2 3 11 -12 13 36 0
33 -34 35 1 2 3 11 -12 -13 115 0
33 -34 35 1 2 3 -11 12 13 136 0
33 -34 35 1 2 3 -11 12 -13 78 0
33 -34 35 1 2 3 -11 -12 13 36 0
33 -34 35 1 2 3 -11 -12 -13 36 0
33 -34 35 1 2 -3 11 12 13 36 0
33 -34 35 1 2 -3 11 12 -13 50 0
33 -34 35 1 2 -3 11 -12 13 38 0
33 -34 35 1 2 -3 11 -12 -13 92 0
33 -34 35 1 2 -3 -11 12 13 120 0
33 -34 35 1 2 -3 -11 12 -13 65 0
33 -34 35 1 2 -3 -11 -12 13 103 0
33 -34 35 1 2 -3 -11 -12 -13 36 0
33 -34 35 1 -2 3 11 12 13 103 0
33 -34 35 1 -2 3 11 12 -13 39 0
33 -34 35 1 -2 3 11 -12 13 41 0
33 -34 35 1 -2 3 11 -12 -13 93 0
33 -34 35 1 -2 3 -11 12 13 75 0
33 -34 35 1 -2 3 -11 12 -13 84 0
33 -34 35 1 -2 3 -11 -12 13 64 0
33 -34 35 1 -2 3 -11 -12 -13 113 0
33 -34 35 1 -2 -3 11 12 13 94 0
33 -34 35 1 -2 -3 11 12 -13 96 0
33 -34 35 1 -2 -3 11 -12 13 122 0
33 -34 35 1 -2 -3 11 -12 -13 57 0
33 -34 35 1 -2 -3 -11 12 13 109 0
33 -34 35 1 -2 -3 -11 12 -13 77 0
33 -34 35 1 -2 -3 -11 -12 13 50 0
33 -34 35 1 -2 -3 -11 -12 -13 36 0
33 -34 35 -1 2 3 11 12 13 90 0
33 -34 35 -1 2 3 11 12 -13 42 0
33 -34 35 -1 2 3 11 -12 13 82 0
33 -34 35 -1 2 3 11 -12 -13 88 0
33 -34 35 -1 2 3 -11 12 13 100 0
33 -34 35 -1 2 3 -11 12 -13 44 0
33 -34 35 -1 2 3 -11 -12 13 37 0
33 -34 35 -1 2 3 -11 -12 -13 113 0
33 -34 35 -1 2 -3 11 12 13 85 0
33 -34 35 -1 2 -3 11 12 -13 80 0
33 -34 35 -1 2 -3 11 -12 13 138 0
33 -34 35 -1 2 -3 11 -12 -13 51 0
33 -34 35 -1 2 -3 -11 12 13 72 0
33 -34 35 -1 2 -3 -11 12 -13 56 0
33 -34 35 -1 2 -3 -11 -12 13 78 0
33 -34 35 -1 2 -3 -11 -12 -13 36 0
33 -34 35 -1 -2 3 11 12 13 121 0
33 -34 35 -1 -2 3 11 12 -13 78 0
33 -34 35 -1 -2 3 11 -12 13 56 0
33 -34 35 -1 -2 3 11 -12 -13 114 0
33 -34 35 -1 -2 3 -11 12 13 131 0
33 -34 35 -1 -2 3 -11 12 -13 50 0
33 -34 35 -1 -2 3 -11 -12 13 113 0
33 -34 35 -1 -2 3 -11 -12 -13 36 0
33 -34 35 -1 -2 -3 11 12 13 36 0
33 -34 35 -1 -2 -3 11 12 -13 36 0
33 -34 35 -1 -2 -3 11 -12 13 113 0
33 -34 35 -1 -2 -3 11 -12 -13 55 0
33 -34 35 -1 -2 -3 -11 12 13 78 0
33 -34 35 -1 -2 -3 -11 12 -13 103 0
33 -34 35 -1 -2 -3 -11 -12 13 36 0
33 -34 35 -1 -2 -3 -11 -12 -13 36 0
33 -34 -35 1 2 3 11 12 13 36 0
33 -34 -35 1 2 3 11 12 -13 113 0
33 -34 -35 1 2 3 11 -12 13 36 0
33 -34 -35 1 2 3 11 -12 -13 94 0
33 -34 -35 1 2 3 -11 12 13 116 0
33 -34 -35 1 2 3 -11 12 -13 136 0
33 -34 -35 1 2 3 -11 -12 13 36 0
33 -34 -35 1 2 3 -11 -12 -13 36 0
33 -34 -35 1 2 -3 11 12 13 36 0
33 -34 -35 1 2 -3 11 12 -13 50 0
33 -34 -35 1 2 -3 11 -12 13 37 0
33 -34 -35 1 2 -3 11 -12 -13 132 0
33 -34 -35 1 2 -3 -11 12 13 117 0
33 -34 -35 1 2 -3 -11 12 -13 120 0
33 -34 -35 1 2 -3 -11 -12 13 103 0
33 -34 -35 1 2 -3 -11 -12 -13 36 0
33 -34 -35 1 -2 3 11 12 13 103 0
33 -34 -35 1 -2 3 11 12 -13 108 0
33 -34 -35 1 -2 3 11 -12 13 128 0
33 -34 -35 1 -2 3 11 -12 -13 43 0
33 -34 -35 1 -2 3 -11 12 13 40 0
33 -34 -35 1 -2 3 -11 12 -13 84 0
33 -34 -35 1 -2 3 -11 -12 13 64 0
33 -34 -35 1 -2 3 -11 -12 -13 113 0
33 -34 -35 1 -2 -3 11 12 13 64 0
33 -34 -35 1 -2 -3 11 12 -13 129 0
33 -34 -35 1 -2 -3 11 -12 13 81 0
33 -34 -35 1 -2 -3 11 -12 -13 95 0
33 -34 -35 1 -2 -3 -11 12 13 134 0
33 -34 -35 1 -2 -3 -11 12 -13 77 0
33 -34 -35 1 -2 -3 -11 -12 13 50 0
33 -34 -35 1 -2 -3 -11 -12 -13 36 0
33 -34 -35 -1 2 3 11 12 13 78 0
33 -34 -35 -1 2 3 11 12 -13 53 0
33 -34 -35 -1 2 3 11 -12 13 45 0
33 -34 -35 -1 2 3 11 -12 -13 63 0
33 -34 -35 -1 2 3 -11 12 13 100 0
33 -34 -35 -1 2 3 -11 12 -13 44 0
33 -34 -35 -1 2 3 -11 -12 13 37 0
33 -34 -35 -1 2 3 -11 -12 -13 113 0
33 -34 -35 -1 2 -3 11 12 13 55 0
33 -34 -35 -1 2 -3 11 12 -13 139 0
33 -34 -35 -1 2 -3 11 -12 13 67 0
33 -34 -35 -1 2 -3 11 -12 -13 54 0
33 -34 -35 -1 2 -3 -11 12 13 72 0
33 -34 -35 -1 2 -3 -11 12 -13 56 0
33 -34 -35 -1 2 -3 -11 -12 13 78 0
33 -34 -35 -1 2 -3 -11 -12 -13 36 0
33 -34 -35 -1 -2 3 11 12 13 103 0
33 -34 -35 -1 -2 3 11 12 -13 90 0
33 -34 -35 -1 -2 3 11 -12 13 97 0
33 -34 -35 -1 -2 3 11 -12 -13 114 0
33 -34 -35 -1 -2 3 -11 12 13 131 0
33 -34 -35 -1 -2 3 -11 12 -13 50 0
33 -34 -35 -1 -2 3 -11 -12 13 113 0
33 -34 -35 -1 -2 3 -11 -12 -13 36 0
33 -34 -35 -1 -2 -3 11 12 13 36 0
33 -34 -35 -1 -2 -3 11 12 -13 36 0
33 -34 -35 -1 -2 -3 11 -12 13 113 0
33 -34 -35 -1 -2 -3 11 -12 -13 55 0
33 -34 -35 -1 -2 -3 -11 12 13 78 0
33 -34 -35 -1 -2 -3 -11 12 -13 103 0
33 -34 -35 -1 -2 -3 -11 -12 13 36 0
33 -34 -35 -1 -2 -3 -11 -12 -13 36 0
-33 34 35 1 2 3 11 12 13 36 0
-33 34 35 1 2 3 11 12 -13 113 0
-33 34 35 1 2 3 11 -12 13 36 0
-33 34 35 1 2 3 11 -12 -13 64 0
-33 34 35 1 2 3 -11 12 13 78 0
-33 34 35 1 2 3 -11 12 -13 116 0
-33 34 35 1 2 3 -11 -12 13 36 0
-33 34 35 1 2 3 -11 -12 -13 36 0
-33 34 35 1 2 -3 11 12 13 36 0
-33 34 35 1 2 -3 11 12 -13 50 0
-33 34 35 1 2 -3 11 -12 13 37 0
-33 34 35 1 2 -3 11 -12 -13 54 0
-33 34 35 1 2 -3 -11 12 13 59 0
-33 34 35 1 2 -3 -11 12 -13 98 0
-33 34 35 1 2 -3 -11 -12 13 121 0
-33 34 35 1 2 -3 -11 -12 -13 36 0
-33 34 35 1 -2 3 11 12 13 103 0
-33 34 35 1 -2 3 11 12 -13 108 0
-33 34 35 1 -2 3 11 -12 13 84 0
-33 34 35 1 -2 3 11 -12 -13 118 0
-33 34 35 1 -2 3 -11 12 13 119 0
-33 34 35 1 -2 3 -11 12 -13 91 0
-33 34 35 1 -2 3 -11 -12 13 64 0
-33 34 35 1 -2 3 -11 -12 -13 113 0
-33 34 35 1 -2 -3 11 12 13 64 0
-33 34 35 1 -2 -3 11 12 -13 129 0
-33 34 35 1 -2 -3 11 -12 13 135 0
-33 34 35 1 -2 -3 11 -12 -13 70 0
-33 34 35 1 -2 -3 -11 12 13 46 0
-33 34 35 1 -2 -3 -11 12 -13 58 0
-33 34 35 1 -2 -3 -11 -12 13 50 0
-33 34 35 1 -2 -3 -11 -12 -13 36 0
-33 34 35 -1 2 3 11 12 13 78 0
-33 34 35 -1 2 3 11 12 -13 99 0
-33 34 35 -1 2 3 11 -12 13 105 0
-33 34 35 -1 2 3 11 -12 -13 87 0
-33 34 35 -1 2 3 -11 12 13 140 0
-33 34 35 -1 2 3 -11 12 -13 49 0
-33 34 35 -1 2 3 -11 -12 13 37 0
-33 34 35 -1 2 3 -11 -12 -13 113 0
-33 34 35 -1 2 -3 11 12 13 55 0
-33 34 35 -1 2 -3 11 12 -13 141 0
-33 34 35 -1 2 -3 11 -12 13 71 0
-33 34 35 -1 2 -3 11 -12 -13 123 0
-33 34 35 -1 2 -3 -11 12 13 103 0
-33 34 35 -1 2 -3 -11 12 -13 56 0
-33 34 35 -1 2 -3 -11 -12 13 78 0
-33 34 35 -1 2 -3 -11 -12 -13 36 0
-33 34 35 -1 -2 3 11 12 13 103 0
-33 34 35 -1 -2 3 11 12 -13 78 0
-33 34 35 -1 -2 3 11 -12 13 73 0
-33 34 35 -1 -2 3 11 -12 -13 101 0
-33 34 35 -1 -2 3 -11 12 13 131 0
-33 34 35 -1 -2 3 -11 12 -13 50 0
-33 34 35 -1 -2 3 -11 -12 13 113 0
-33 34 35 -1 -2 3 -11 -12 -13 36 0
-33 34 35 -1 -2 -3 11 12 13 36 0
-33 34 35 -1 -2 -3 11 12 -13 36 0
-33 34 35 -1 -2 -3 11 -12 13 89 0
-33 34 35 -1 -2 -3 11 -12 -13 55 0
-33 34 35 -1 -2 -3 -11 12 13 78 0
-33 34 35 -1 -2 -3 -11 12 -13 103 0
-33 34 35 -1 -2 -3 -11 -12 13 36 0
-33 34 35 -1 -2 -3 -11 -12 -13 36 0
-33 34 -35 1 2 3 11 12 13 36 0
-33 34 -35 1 2 3 11 12 -13 113 0
-33 34 -35 1 2 3 11 -12 13 36 0
-33 34 -35 1 2 3 11 -12 -13 64 0
-33 34 -35 1 2 3 -11 12 13 78 0
-33 34 -35 1 2 3 -11 12 -13 78 0
-33 34 -35 1 2 3 -11 -12 13 36 0
-33 34 -35 1 2 3 -11 -12 -13 36 0
-33 34 -35 1 2 -3 11 12 13 36 0
-33 34 -35 1 2 -3 11 12 -13 50 0
-33 34 -35 1 2 -3 11 -12 13 37 0
-33 34 -35 1 2 -3 11 -12 -13 54 0
-33 34 -35 1 2 -3 -11 12 13 65 0
-33 34 -35 1 2 -3 -11 12 -13 65 0
-33 34 -35 1 2 -3 -11 -12 13 103 0
-33 34 -35 1 2 -3 -11 -12 -13 36 0
-33 34 -35 1 -2 3 11 12 13 103 0
-33 34 -35 1 -2 3 11 12 -13 108 0
-33 34 -35 1 -2 3 11 -12 13 84 0
-33 34 -35 1 -2 3 11 -12 -13 76 0
-33 34 -35 1 -2 3 -11 12 13 108 0
-33 34 -35 1 -2 3 -11 12 -13 106 0
-33 34 -35 1 -2 3 -11 -12 13 69 0
-33 34 -35 1 -2 3 -11 -12 -13 113 0
-33 34 -35 1 -2 -3 11 12 13 64 0
-33 34 -35 1 -2 -3 11 12 -13 129 0
-33 34 -35 1 -2 -3 11 -12 13 142 0
-33 34 -35 1 -2 -3 11 -12 -13 48 0
-33 34 -35 1 -2 -3 -11 12 13 112 0
-33 34 -35 1 -2 -3 -11 12 -13 125 0
-33 34 -35 1 -2 -3 -11 -12 13 53 0
-33 34 -35 1 -2 -3 -11 -12 -13 36 0
-33 34 -35 -1 2 3 11 12 13 78 0
-33 34 -35 -1 2 3 11 12 -13 99 0
-33 34 -35 -1 2 3 11 -12 13 127 0
-33 34 -35 -1 2 3 11 -12 -13 143 0
-33 34 -35 -1 2 3 -11 12 13 133 0
-33 34 -35 -1 2 3 -11 12 -13 102 0
-33 34 -35 -1 2 3 -11 -12 13 37 0
-33 34 -35 -1 2 3 -11 -12 -13 113 0
-33 34 -35 -1 2 -3 11 12 13 55 0
-33 34 -35 -1 2 -3 11 12 -13 141 0
-33 34 -35 -1 2 -3 11 -12 13 138 0
-33 34 -35 -1 2 -3 11 -12 -13 132 0
-33 34 -35 -1 2 -3 -11 12 13 62 0
-33 34 -35 -1 2 -3 -11 12 -13 126 0
-33 34 -35 -1 2 -3 -11 -12 13 78 0
-33 34 -35 -1 2 -3 -11 -12 -13 36 0
-33 34 -35 -1 -2 3 11 12 13 103 0
-33 34 -35 -1 -2 3 11 12 -13 78 0
-33 34 -35 -1 -2 3 11 -12 13 107 0
-33 34 -35 -1 -2 3 11 -12 -13 130 0
-33 34 -35 -1 -2 3 -11 12 13 137 0
-33 34 -35 -1 -2 3 -11 12 -13 50 0
-33 34 -35 -1 -2 3 -11 -12 13 113 0
-33 34 -35 -1 -2 3 -11 -12 -13 36 0
-33 34 -35 -1 -2 -3 11 12 13 36 0
-33 34 -35 -1 -2 -3 11 12 -13 36 0
-33 34 -35 -1 -2 -3 11 -12 13 113 0
-33 34 -35 -1 -2 -3 11 -12 -13 85 0
-33 34 -35 -1 -2 -3 -11 12 13 78 0
-33 34 -35 -1 -2 -3 -11 12 -13 103 0
-33 34 -35 -1 -2 -3 -11 -12 13 36 0
-33 34 -35 -1 -2 -3 -11 -12 -13 36 0
-33 -34 35 1 2 3 11 12 13 36 0
-33 -34 35 1 2 3 11 12 -13 113 0
-33 -34 35 1 2 3 11 -12 13 36 0
-33 -34 35 1 2 3 11 -12 -13 64 0
-33 -34 35 1 2 3 -11 12 13 78 0
-33 -34 35 1 2 3 -11 12 -13 78 0
-33 -34 35 1 2 3 -11 -12 13 36 0
-33 -34 35 1 2 3 -11 -12 -13 36 0
-33 -34 35 1 2 -3 11 12 13 36 0
-33 -34 35 1 2 -3 11 12 -13 50 0
-33 -34 35 1 2 -3 11 -12 13 37 0
-33 -34 35 1 2 -3 11 -12 -13 54 0
-33 -34 35 1 2 -3 -11 12 13 65 0
-33 -34 35 1 2 -3 -11 12 -13 65 0
-33 -34 35 1 2 -3 -11 -12 13 103 0
-33 -34 35 1 2 -3 -11 -12 -13 36 0
-33 -34 35 1 -2 3 11 12 13 103 0
-33 -34 35 1 -2 3 11 12 -13 108 0
-33 -34 35 1 -2 3 11 -12 13 84 0
-33 -34 35 1 -2 3 11 -12 -13 76 0
-33 -34 35 1 -2 3 -11 12 13 75 0
-33 -34 35 1 -2 3 -11 12 -13 84 0
-33 -34 35 1 -2 3 -11 -12 13 94 0
-33 -34 35 1 -2 3 -11 -12 -13 89 0
-33 -34 35 1 -2 -3 11 12 13 64 0
-33 -34 35 1 -2 -3 11 12 -13 129 0
-33 -34 35 1 -2 -3 11 -12 13 142 0
-33 -34 35 1 -2 -3 11 -12 -13 48 0
-33 -34 35 1 -2 -3 -11 12 13 109 0
-33 -34 35 1 -2 -3 -11 12 -13 111 0
-33 -34 35 1 -2 -3 -11 -12 13 110 0
-33 -34 35 1 -2 -3 -11 -12 -13 36 0
-33 -34 35 -1 2 3 11 12 13 78 0
-33 -34 35 -1 2 3 11 12 -13 99 0
-33 -34 35 -1 2 3 11 -12 13 127 0
-33 -34 35 -1 2 3 11 -12 -13 88 0
-33 -34 35 -1 2 3 -11 12 13 52 0
-33 -34 35 -1 2 3 -11 12 -13 86 0
-33 -34 35 -1 2 3 -11 -12 13 47 0
-33 -34 35 -1 2 3 -11 -12 -13 113 0
-33 -34 35 -1 2 -3 11 12 13 55 0
-33 -34 35 -1 2 -3 11 12 -13 141 0
-33 -34 35 -1 2 -3 11 -12 13 138 0
-33 -34 35 -1 2 -3 11 -12 -13 51 0
-33 -34 35 -1 2 -3 -11 12 13 103 0
-33 -34 35 -1 2 -3 -11 12 -13 83 0
-33 -34 35 -1 2 -3 -11 -12 13 78 0
-33 -34 35 -1 2 -3 -11 -12 -13 36 0
-33 -34 35 -1 -2 3 11 12 13 103 0
-33 -34 35 -1 -2 3 11 12 -13 78 0
-33 -34 35 -1 -2 3 11 -12 13 56 0
-33 -34 35 -1 -2 3 11 -12 -13 114 0
-33 -34 35 -1 -2 3 -11 12 13 137 0
-33 -34 35 -1 -2 3 -11 12 -13 124 0
-33 -34 35 -1 -2 3 -11 -12 13 113 0
-33 -34 35 -1 -2 3 -11 -12 -13 36 0
-33 -34 35 -1 -2 -3 11 12 13 36 0
-33 -34 35 -1 -2 -3 11 12 -13 36 0
-33 -34 35 -1 -2 -3 11 -12 13 113 0
-33 -34 35 -1 -2 -3 11 -12 -13 66 0
-33 -34 35 -1 -2 -3 -11 12 13 90 0
-33 -34 35 -1 -2 -3 -11 12 -13 121 0
-33 -34 35 -1 -2 -3 -11 -12 13 36 0
-33 -34 35 -1 -2 -3 -11 -12 -13 36 0
-33 -34 -35 1 2 3 11 12 13 36 0
-33 -34 -35 1 2 3 11 12 -13 113 0
-33 -34 -35 1 2 3 11 -12 13 36 0
-33 -34 -35 1 2 3 11 -12 -13 64 0
-33 -34 -35 1 2 3 -11 12 13 78 0
-33 -34 -35 1 2 3 -11 12 -13 78 0
-33 -34 -35 1 2 3 -11 -12 13 36 0
-33 -34 -35 1 2 3 -11 -12 -13 36 0
-33 -34 -35 1 2 -3 11 12 13 36 0
-33 -34 -35 1 2 -3 11 12 -13 50 0
-33 -34 -35 1 2 -3 11 -12 13 37 0
-33 -34 -35 1 2 -3 11 -12 -13 54 0
-33 -34 -35 1 2 -3 -11 12 13 65 0
-33 -34 -35 1 2 -3 -11 12 -13 65 0
-33 -34 -35 1 2 -3 -11 -12 13 103 0
-33 -34 -35 1 2 -3 -11 -12 -13 36 0
-33 -34 -35 1 -2 3 11 12 13 103 0
-33 -34 -35 1 -2 3 11 12 -13 108 0
-33 -34 -35 1 -2 3 11 -12 13 84 0
-33 -34 -35 1 -2 3 11 -12 -13 76 0
-33 -34 -35 1 -2 3 -11 12 13 75 0
-33 -34 -35 1 -2 3 -11 12 -13 84 0
-33 -34 -35 1 -2 3 -11 -12 13 64 0
-33 -34 -35 1 -2 3 -11 -12 -13 113 0
-33 -34 -35 1 -2 -3 11 12 13 64 0
-33 -34 -35 1 -2 -3 11 12 -13 129 0
-33 -34 -35 1 -2 -3 11 -12 13 142 0
-33 -34 -35 1 -2 -3 11 -12 -13 48 0
-33 -34 -35 1 -2 -3 -11 12 13 109 0
-33 -34 -35 1 -2 -3 -11 12 -13 77 0
-33 -34 -35 1 -2 -3 -11 -12 13 53 0
-33 -34 -35 1 -2 -3 -11 -12 -13 36 0
-33 -34 -35 -1 2 3 11 12 13 78 0
-33 -34 -35 -1 2 3 11 12 -13 99 0
-33 -34 -35 -1 2 3 11 -12 13 127 0
-33 -34 -35 -1 2 3 11 -12 -13 88 0
-33 -34 -35 -1 2 3 -11 12 13 100 0
-33 -34 -35 -1 2 3 -11 12 -13 44 0
-33 -34 -35 -1 2 3 -11 -12 13 36 0
-33 -34 -35 -1 2 3 -11 -12 -13 89 0
-33 -34 -35 -1 2 -3 11 12 13 55 0
-33 -34 -35 -1 2 -3 11 12 -13 141 0
-33 -34 -35 -1 2 -3 11 -12 13 138 0
-33 -34 -35 -1 2 -3 11 -12 -13 51 0
-33 -34 -35 -1 2 -3 -11 12 13 72 0
-33 -34 -35 -1 2 -3 -11 12 -13 79 0
-33 -34 -35 -1 2 -3 -11 -12 13 90 0
-33 -34 -35 -1 2 -3 -11 -12 -13 36 0
-33 -34 -35 -1 -2 3 11 12 13 103 0
-33 -34 -35 -1 -2 3 11 12 -13 78 0
-33 -34 -35 -1 -2 3 11 -12 13 56 0
-33 -34 -35 -1 -2 3 11 -12 -13 114 0
-33 -34 -35 -1 -2 3 -11 12 13 131 0
-33 -34 -35 -1 -2 3 -11 12 -13 50 0
-33 -34 -35 -1 -2 3 -11 -12 13 89 0
-33 -34 -35 -1 -2 3 -11 -12 -13 36 0
-33 -34 -35 -1 -2 -3 11 12 13 36 0
-33 -34 -35 -1 -2 -3 11 12 -13 36 0
-33 -34 -35 -1 -2 -3 11 -12 13 113 0
-33 -34 -35 -1 -2 -3 11 -12 -13 55 0
-33 -34 -35 -1 -2 -3 -11 12 13 78 0
-33 -34 -35 -1 -2 -3 -11 12 -13 103 0
-33 -34 -35 -1 -2 -3 -11 -12 13 36 0
-33 -34 -35 -1 -2 -3 -11 -12 -13 36 0
144 145 146 22 23 24 33 34 35 147 0
144 145 146 22 23 24 33 34 -35 147 0
144 145 146 22 23 24 33 -34 35 226 0
144 145 146 22 23 24 33 -34 -35 188 0
144 145 146 22 23 24 -33 34 35 188 0
144 145 146 22 23 24 -33 34 -35 226 0
144 145 146 22 23 24 -33 -34 35 147 0
144 145 146 22 23 24 -33 -34 -35 147 0
144 145 146 22 23 -24 33 34 35 147 0
144 145 146 22 23 -24 33 34 -35 226 0
144 145 146 22 23 -24 33 -34 35 241 0
144 145 146 22 23 -24 33 -34 -35 225 0
144 145 146 22 23 -24 -33 34 35 196 0
144 145 146 22 23 -24 -33 34 -35 164 0
144 145 146 22 23 -24 -33 -34 35 191 0
144 145 146 22 23 -24 -33 -34 -35 147 0
144 145 146 22 -23 24 33 34 35 199 0
144 145 146 22 -23 24 33 34 -35 160 0
144 145 146 22 -23 24 33 -34 35 195 0
144 145 146 22 -23 24 33 -34 -35 227 0
144 145 146 22 -23 24 -33 34 35 197 0
144 145 146 22 -23 24 -33 34 -35 237 0
144 145 146 22 -23 24 -33 -34 35 177 0
144 145 146 22 -23 24 -33 -34 -35 147 0
144 145 146 22 -23 -24 33 34 35 178 0
144 145 146 22 -23 -24 33 34 -35 173 0
144 145 146 22 -23 -24 33 -34 35 187 0
144 145 146 22 -23 -24 33 -34 -35 168 0
144 145 146 22 -23 -24 -33 34 35 221 0
144 145 146 22 -23 -24 -33 34 -35 162 0
144 145 146 22 -23 -24 -33 -34 35 173 0
144 145 146 22 -23 -24 -33 -34 -35 160 0
144 145 146 -22 23 24 33 34 35 226 0
144 145 146 -22 23 24 33 34 -35 235 0
144 145 146 -22 23 24 33 -34 35 237 0
144 145 146 -22 23 24 33 -34 -35 219 0
144 145 146 -22 23 24 -33 34 35 168 0
144 145 146 -22 23 24 -33 34 -35 179 0
144 145 146 -22 23 24 -33 -34 35 213 0
144 145 146 -22 23 24 -33 -34 -35 214 0
144 145 146 -22 23 -24 33 34 35 147 0
144 145 146 -22 23 -24 33 34 -35 214 0
144 145 146 -22 23 -24 33 -34 35 195 0
144 145 146 -22 23 -24 33 -34 -35 215 0
144 145 146 -22 23 -24 -33 34 35 175 0
144 145 146 -22 23 -24 -33 34 -35 196 0
144 145 146 -22 23 -24 -33 -34 35 148 0
144 145 146 -22 23 -24 -33 -34 -35 147 0
144 145 146 -22 -23 24 33 34 35 147 0
144 145 146 -22 -23 24 33 34 -35 214 0
144 145 146 -22 -23 24 33 -34 35 180 0
144 145 146 -22 -23 24 33 -34 -35 218 0
144 145 146 -22 -23 24 -33 34 35 235 0
144 145 146 -22 -23 24 -33 34 -35 148 0
144 145 146 -22 -23 24 -33 -34 35 191 0
144 145 146 -22 -23 24 -33 -34 -35 147 0
144 145 146 -22 -23 -24 33 34 35 147 0
144 145 146 -22 -23 -24 33 34 -35 147 0
144 145 146 -22 -23 -24 33 -34 35 214 0
144 145 146 -22 -23 -24 33 -34 -35 191 0
144 145 146 -22 -23 -24 -33 34 35 165 0
144 145 146 -22 -23 -24 -33 34 -35 226 0
144 145 146 -22 -23 -24 -33 -34 35 147 0
144 145 146 -22 -23 -24 -33 -34 -35 147 0
144 145 -146 22 23 24 33 34 35 147 0
144 145 -146 22 23 24 33 34 -35 147 0
144 145 -146 22 23 24 33 -34 35 226 0
144 145 -146 22 23 24 33 -34 -35 188 0
144 145 -146 22 23 24 -33 34 35 188 0
144 145 -146 22 23 24 -33 34 -35 226 0
144 145 -146 22 23 24 -33 -34 35 147 0
144 145 -146 22 23 24 -33 -34 -35 147 0
144 145 -146 22 23 -24 33 34 35 147 0
144 145 -146 22 23 -24 33 34 -35 199 0
144 145 -146 22 23 -24 33 -34 35 231 0
144 145 -146 22 23 -24 33 -34 -35 225 0
144 145 -146 22 23 -24 -33 34 35 196 0
144 145 -146 22 23 -24 -33 34 -35 164 0
144 145 -146 22 23 -24 -33 -34 35 191 0
144 145 -146 22 23 -24 -33 -34 -35 147 0
144 145 -146 22 -23 24 33 34 35 226 0
144 145 -146 22 -23 24 33 34 -35 200 0
144 145 -146 22 -23 24 33 -34 35 239 0
144 145 -146 22 -23 24 33 -34 -35 227 0
144 145 -146 22 -23 24 -33 34 35 197 0
144 145 -146 22 -23 24 -33 34 -35 237 0
144 145 -146 22 -23 24 -33 -34 35 177 0
144 145 -146 22 -23 24 -33 -34 -35 147 0
144 145 -146 22 -23 -24 33 34 35 178 0
144 145 -146 22 -23 -24 33 34 -35 151 0
144 145 -146 22 -23 -24 33 -34 35 187 0
144 145 -146 22 -23 -24 33 -34 -35 168 0
144 145 -146 22 -23 -24 -33 34 35 221 0
144 145 -146 22 -23 -24 -33 34 -35 162 0
144 145 -146 22 -23 -24 -33 -34 35 173 0
144 145 -146 22 -23 -24 -33 -34 -35 160 0
144 145 -146 -22 23 24 33 34 35 199 0
144 145 -146 -22 23 24 33 34 -35 178 0
144 145 -146 -22 23 24 33 -34 35 237 0
144 145 -146 -22 23 24 33 -34 -35 219 0
144 145 -146 -22 23 24 -33 34 35 168 0
144 145 -146 -22 23 24 -33 34 -35 179 0
144 145 -146 -22 23 24 -33 -34 35 213 0
144 145 -146 -22 23 24 -33 -34 -35 214 0
144 145 -146 -22 23 -24 33 34 35 147 0
144 145 -146 -22 23 -24 33 34 -35 214 0
144 145 -146 -22 23 -24 33 -34 35 195 0
144 145 -146 -22 23 -24 33 -34 -35 215 0
144 145 -146 -22 23 -24 -33 34 35 175 0
144 145 -146 -22 23 -24 -33 34 -35 196 0
144 145 -146 -22 23 -24 -33 -34 35 148 0
144 145 -146 -22 23 -24 -33 -34 -35 147 0
144 145 -146 -22 -23 24 33 34 35 147 0
144 145 -146 -22 -23 24 33 34 -35 214 0
144 145 -146 -22 -23 24 33 -34 35 180 0
144 145 -146 -22 -23 24 33 -34 -35 218 0
144 145 -146 -22 -23 24 -33 34 35 235 0
144 145 -146 -22 -23 24 -33 34 -35 148 0
144 145 -146 -22 -23 24 -33 -34 35 191 0
144 145 -146 -22 -23 24 -33 -34 -35 147 0
144 145 -146 -22 -23 -24 33 34 35 147 0
144 145 -146 -22 -23 -24 33 34 -35 147 0
144 145 -146 -22 -23 -24 33 -34 35 214 0
144 145 -146 -22 -23 -24 33 -34 -35 191 0
144 145 -146 -22 -23 -24 -33 34 35 165 0
144 145 -146 -22 -23 -24 -33 34 -35 226 0
144 145 -146 -22 -23 -24 -33 -34 35 147 0
144 145 -146 -22 -23 -24 -33 -34 -35 147 0
144 -145 146 22 23 24 33 34 35 147 0
144 -145 146 22 23 24 33 34 -35 147 0
144 -145 146 22 23 24 33 -34 35 199 0
144 -145 146 22 23 24 33 -34 -35 229 0
144 -145 146 22 23 24 -33 34 35 188 0
144 -145 146 22 23 24 -33 34 -35 226 0
144 -145 146 22 23 24 -33 -34 35 147 0
144 -145 146 22 23 24 -33 -34 -35 147 0
144 -145 146 22 23 -24 33 34 35 147 0
144 -145 146 22 23 -24 33 34 -35 226 0
144 -145 146 22 23 -24 33 -34 35 174 0
144 -145 146 22 23 -24 33 -34 -35 232 0
144 -145 146 22 23 -24 -33 34 35 196 0
144 -145 146 22 23 -24 -33 34 -35 164 0
144 -145 146 22 23 -24 -33 -34 35 191 0
144 -145 146 22 23 -24 -33 -34 -35 147 0
144 -145 146 22 -23 24 33 34 35 226 0
144 -145 146 22 -23 24 33 34 -35 160 0
144 -145 146 22 -23 24 33 -34 35 153 0
144 -145 146 22 -23 24 33 -34 -35 206 0
144 -145 146 22 -23 24 -33 34 35 197 0
144 -145 146 22 -23 24 -33 34 -35 237 0
144 -145 146 22 -23 24 -33 -34 35 177 0
144 -145 146 22 -23 24 -33 -34 -35 147 0
144 -145 146 22 -23 -24 33 34 35 214 0
144 -145 146 22 -23 -24 33 34 -35 228 0
144 -145 146 22 -23 -24 33 -34 35 222 0
144 -145 146 22 -23 -24 33 -34 -35 168 0
144 -145 146 22 -23 -24 -33 34 35 221 0
144 -145 146 22 -23 -24 -33 34 -35 162 0
144 -145 146 22 -23 -24 -33 -34 35 173 0
144 -145 146 22 -23 -24 -33 -34 -35 160 0
144 -145 146 -22 23 24 33 34 35 226 0
144 -145 146 -22 23 24 33 34 -35 156 0
144 -145 146 -22 23 24 33 -34 35 198 0
144 -145 146 -22 23 24 33 -34 -35 219 0
144 -145 146 -22 23 24 -33 34 35 168 0
144 -145 146 -22 23 24 -33 34 -35 179 0
144 -145 146 -22 23 24 -33 -34 35 213 0
144 -145 146 -22 23 24 -33 -34 -35 214 0
144 -145 146 -22 23 -24 33 34 35 147 0
144 -145 146 -22 23 -24 33 34 -35 233 0
144 -145 146 -22 23 -24 33 -34 35 216 0
144 -145 146 -22 23 -24 33 -34 -35 215 0
144 -145 146 -22 23 -24 -33 34 35 175 0
144 -145 146 -22 23 -24 -33 34 -35 196 0
144 -145 146 -22 23 -24 -33 -34 35 148 0
144 -145 146 -22 23 -24 -33 -34 -35 147 0
144 -145 146 -22 -23 24 33 34 35 147 0
144 -145 146 -22 -23 24 33 34 -35 233 0
144 -145 146 -22 -23 24 33 -34 35 180 0
144 -145 146 -22 -23 24 33 -34 -35 218 0
144 -145 146 -22 -23 24 -33 34 35 235 0
144 -145 146 -22 -23 24 -33 34 -35 148 0
144 -145 146 -22 -23 24 -33 -34 35 191 0
144 -145 146 -22 -23 24 -33 -34 -35 147 0
144 -145 146 -22 -23 -24 33 34 35 147 0
144 -145 146 -22 -23 -24 33 34 -35 147 0
144 -145 146 -22 -23 -24 33 -34 35 214 0
144 -145 146 -22 -23 -24 33 -34 -35 191 0
144 -145 146 -22 -23 -24 -33 34 35 165 0
144 -145 146 -22 -23 -24 -33 34 -35 226 0
144 -145 146 -22 -23 -24 -33 -34 35 147 0
144 -145 146 -22 -23 -24 -33 -34 -35 147 0
144 -145 -146 22 23 24 33 34 35 147 0
144 -145 -146 22 23 24 33 34 -35 147 0
144 -145 -146 22 23 24 33 -34 35 226 0
144 -145 -146 22 23 24 33 -34 -35 188 0
144 -145 -146 22 23 24 -33 34 35 182 0
144 -145 -146 22 23 24 -33 34 -35 226 0
144 -145 -146 22 23 24 -33 -34 35 147 0
144 -145 -146 22 23 24 -33 -34 -35 147 0
144 -145 -146 22 23 -24 33 34 35 147 0
144 -145 -146 22 23 -24 33 34 -35 226 0
144 -145 -146 22 23 -24 33 -34 35 241 0
144 -145 -146 22 23 -24 33 -34 -35 223 0
144 -145 -146 22 23 -24 -33 34 35 201 0
144 -145 -146 22 23 -24 -33 34 -35 164 0
144 -145 -146 22 23 -24 -33 -34 35 191 0
144 -145 -146 22 23 -24 -33 -34 -35 147 0
144 -145 -146 22 -23 24 33 34 35 226 0
144 -145 -146 22 -23 24 33 34 -35 160 0
144 -145 -146 22 -23 24 33 -34 35 239 0
144 -145 -146 22 -23 24 33 -34 -35 154 0
144 -145 -146 22 -23 24 -33 34 35 170 0
144 -145 -146 22 -23 24 -33 34 -35 237 0
144 -145 -146 22 -23 24 -33 -34 35 177 0
144 -145 -146 22 -23 24 -33 -34 -35 147 0
144 -145 -146 22 -23 -24 33 34 35 214 0
144 -145 -146 22 -23 -24 33 34 -35 173 0
144 -145 -146 22 -23 -24 33 -34 35 193 0
144 -145 -146 22 -23 -24 33 -34 -35 155 0
144 -145 -146 22 -23 -24 -33 34 35 166 0
144 -145 -146 22 -23 -24 -33 34 -35 162 0
144 -145 -146 22 -23 -24 -33 -34 35 173 0
144 -145 -146 22 -23 -24 -33 -34 -35 160 0
144 -145 -146 -22 23 24 33 34 35 226 0
144 -145 -146 -22 23 24 33 34 -35 235 0
144 -145 -146 -22 23 24 33 -34 35 181 0
144 -145 -146 -22 23 24 33 -34 -35 171 0
144 -145 -146 -22 23 24 -33 34 35 168 0
144 -145 -146 -22 23 24 -33 34 -35 179 0
144 -145 -146 -22 23 24 -33 -34 35 213 0
144 -145 -146 -22 23 24 -33 -34 -35 214 0
144 -145 -146 -22 23 -24 33 34 35 147 0
144 -145 -146 -22 23 -24 33 34 -35 214 0
144 -145 -146 -22 23 -24 33 -34 35 203 0
144 -145 -146 -22 23 -24 33 -34 -35 208 0
144 -145 -146 -22 23 -24 -33 34 35 175 0
144 -145 -146 -22 23 -24 -33 34 -35 196 0
144 -145 -146 -22 23 -24 -33 -34 35 148 0
144 -145 -146 -22 23 -24 -33 -34 -35 147 0
144 -145 -146 -22 -23 24 33 34 35 147 0
144 -145 -146 -22 -23 24 33 34 -35 214 0
144 -145 -146 -22 -23 24 33 -34 35 224 0
144 -145 -146 -22 -23 24 33 -34 -35 217 0
144 -145 -146 -22 -23 24 -33 34 35 235 0
144 -145 -146 -22 -23 24 -33 34 -35 148 0
144 -145 -146 -22 -23 24 -33 -34 35 191 0
144 -145 -146 -22 -23 24 -33 -34 -35 147 0
144 -145 -146 -22 -23 -24 33 34 35 147 0
144 -145 -146 -22 -23 -24 33 34 -35 147 0
144 -145 -146 -22 -23 -24 33 -34 35 233 0
144 -145 -146 -22 -23 -24 33 -34 -35 191 0
144 -145 -146 -22 -23 -24 -33 34 35 165 0
144 -145 -146 -22 -23 -24 -33 34 -35 226 0
144 -145 -146 -22 -23 -24 -33 -34 35 147 0
144 -145 -146 -22 -23 -24 -33 -34 -35 147 0
-144 145 146 22 23 24 33 34 35 147 0
-144 145 146 22 23 24 33 34 -35 147 0
-144 145 146 22 23 24 33 -34 35 226 0
-144 145 146 22 23 24 33 -34 -35 188 0
-144 145 146 22 23 24 -33 34 35 217 0
-144 145 146 22 23 24 -33 34 -35 199 0
-144 145 146 22 23 24 -33 -34 35 147 0
-144 145 146 22 23 24 -33 -34 -35 147 0
-144 145 146 22 23 -24 33 34 35 147 0
-144 145 146 22 23 -24 33 34 -35 226 0
-144 145 146 22 23 -24 33 -34 35 241 0
-144 145 146 22 23 -24 33 -34 -35 225 0
-144 145 146 22 23 -24 -33 34 35 234 0
-144 145 146 22 23 -24 -33 34 -35 183 0
-144 145 146 22 23 -24 -33 -34 35 191 0
-144 145 146 22 23 -24 -33 -34 -35 147 0
-144 145 146 22 -23 24 33 34 35 226 0
-144 145 146 22 -23 24 33 34 -35 160 0
-144 145 146 22 -23 24 33 -34 35 195 0
-144 145 146 22 -23 24 33 -34 -35 207 0
-144 145 146 22 -23 24 -33 34 35 192 0
-144 145 146 22 -23 24 -33 34 -35 204 0
-144 145 146 22 -23 24 -33 -34 35 177 0
-144 145 146 22 -23 24 -33 -34 -35 147 0
-144 145 146 22 -23 -24 33 34 35 214 0
-144 145 146 22 -23 -24 33 34 -35 173 0
-144 145 146 22 -23 -24 33 -34 35 187 0
-144 145 146 22 -23 -24 33 -34 -35 163 0
-144 145 146 22 -23 -24 -33 34 35 176 0
-144 145 146 22 -23 -24 -33 34 -35 210 0
-144 145 146 22 -23 -24 -33 -34 35 173 0
-144 145 146 22 -23 -24 -33 -34 -35 160 0
-144 145 146 -22 23 24 33 34 35 226 0
-144 145 146 -22 23 24 33 34 -35 235 0
-144 145 146 -22 23 24 33 -34 35 237 0
-144 145 146 -22 23 24 33 -34 -35 230 0
-144 145 146 -22 23 24 -33 34 35 202 0
-144 145 146 -22 23 24 -33 34 -35 179 0
-144 145 146 -22 23 24 -33 -34 35 213 0
-144 145 146 -22 23 24 -33 -34 -35 214 0
-144 145 146 -22 23 -24 33 34 35 147 0
-144 145 146 -22 23 -24 33 34 -35 214 0
-144 145 146 -22 23 -24 33 -34 35 195 0
-144 145 146 -22 23 -24 33 -34 -35 152 0
-144 145 146 -22 23 -24 -33 34 35 149 0
-144 145 146 -22 23 -24 -33 34 -35 196 0
-144 145 146 -22 23 -24 -33 -34 35 148 0
-144 145 146 -22 23 -24 -33 -34 -35 147 0
-144 145 146 -22 -23 24 33 34 35 147 0
-144 145 146 -22 -23 24 33 34 -35 214 0
-144 145 146 -22 -23 24 33 -34 35 180 0
-144 145 146 -22 -23 24 33 -34 -35 172 0
-144 145 146 -22 -23 24 -33 34 35 178 0
-144 145 146 -22 -23 24 -33 34 -35 148 0
-144 145 146 -22 -23 24 -33 -34 35 191 0
-144 145 146 -22 -23 24 -33 -34 -35 147 0
-144 145 146 -22 -23 -24 33 34 35 147 0
-144 145 146 -22 -23 -24 33 34 -35 147 0
-144 145 146 -22 -23 -24 33 -34 35 214 0
-144 145 146 -22 -23 -24 33 -34 -35 205 0
-144 145 146 -22 -23 -24 -33 34 35 165 0
-144 145 146 -22 -23 -24 -33 34 -35 226 0
-144 145 146 -22 -23 -24 -33 -34 35 147 0
-144 145 146 -22 -23 -24 -33 -34 -35 147 0
-144 145 -146 22 23 24 33 34 35 147 0
-144 145 -146 22 23 24 33 34 -35 147 0
-144 145 -146 22 23 24 33 -34 35 226 0
-144 145 -146 22 23 24 33 -34 -35 188 0
-144 145 -146 22 23 24 -33 34 35 188 0
-144 145 -146 22 23 24 -33 34 -35 226 0
-144 145 -146 22 23 24 -33 -34 35 147 0
-144 145 -146 22 23 24 -33 -34 -35 147 0
-144 145 -146 22 23 -24 33 34 35 147 0
-144 145 -146 22 23 -24 33 34 -35 226 0
-144 145 -146 22 23 -24 33 -34 35 241 0
-144 145 -146 22 23 -24 33 -34 -35 225 0
-144 145 -146 22 23 -24 -33 34 35 196 0
-144 145 -146 22 23 -24 -33 34 -35 194 0
-144 145 -146 22 23 -24 -33 -34 35 228 0
-144 145 -146 22 23 -24 -33 -34 -35 147 0
-144 145 -146 22 -23 24 33 34 35 226 0
-144 145 -146 22 -23 24 33 34 -35 160 0
-144 145 -146 22 -23 24 33 -34 35 195 0
-144 145 -146 22 -23 24 33 -34 -35 227 0
-144 145 -146 22 -23 24 -33 34 35 197 0
-144 145 -146 22 -23 24 -33 34 -35 150 0
-144 145 -146 22 -23 24 -33 -34 35 184 0
-144 145 -146 22 -23 24 -33 -34 -35 147 0
-144 145 -146 22 -23 -24 33 34 35 214 0
-144 145 -146 22 -23 -24 33 34 -35 173 0
-144 145 -146 22 -23 -24 33 -34 35 187 0
-144 145 -146 22 -23 -24 33 -34 -35 168 0
-144 145 -146 22 -23 -24 -33 34 35 161 0
-144 145 -146 22 -23 -24 -33 34 -35 190 0
-144 145 -146 22 -23 -24 -33 -34 35 191 0
-144 145 -146 22 -23 -24 -33 -34 -35 160 0
-144 145 -146 -22 23 24 33 34 35 226 0
-144 145 -146 -22 23 24 33 34 -35 235 0
-144 145 -146 -22 23 24 33 -34 35 237 0
-144 145 -146 -22 23 24 33 -34 -35 219 0
-144 145 -146 -22 23 24 -33 34 35 211 0
-144 145 -146 -22 23 24 -33 34 -35 238 0
-144 145 -146 -22 23 24 -33 -34 35 213 0
-144 145 -146 -22 23 24 -33 -34 -35 214 0
-144 145 -146 -22 23 -24 33 34 35 147 0
-144 145 -146 -22 23 -24 33 34 -35 214 0
-144 145 -146 -22 23 -24 33 -34 35 195 0
-144 145 -146 -22 23 -24 33 -34 -35 215 0
-144 145 -146 -22 23 -24 -33 34 35 174 0
-144 145 -146 -22 23 -24 -33 34 -35 209 0
-144 145 -146 -22 23 -24 -33 -34 35 148 0
-144 145 -146 -22 23 -24 -33 -34 -35 147 0
-144 145 -146 -22 -23 24 33 34 35 147 0
-144 145 -146 -22 -23 24 33 34 -35 214 0
-144 145 -146 -22 -23 24 33 -34 35 180 0
-144 145 -146 -22 -23 24 33 -34 -35 218 0
-144 145 -146 -22 -23 24 -33 34 35 156 0
-144 145 -146 -22 -23 24 -33 34 -35 148 0
-144 145 -146 -22 -23 24 -33 -34 35 191 0
-144 145 -146 -22 -23 24 -33 -34 -35 147 0
-144 145 -146 -22 -23 -24 33 34 35 147 0
-144 145 -146 -22 -23 -24 33 34 -35 147 0
-144 145 -146 -22 -23 -24 33 -34 35 214 0
-144 145 -146 -22 -23 -24 33 -34 -35 191 0
-144 145 -146 -22 -23 -24 -33 34 35 149 0
-144 145 -146 -22 -23 -24 -33 34 -35 226 0
-144 145 -146 -22 -23 -24 -33 -34 35 147 0
-144 145 -146 -22 -23 -24 -33 -34 -35 147 0
-144 -145 146 22 23 24 33 34 35 147 0
-144 -145 146 22 23 24 33 34 -35 147 0
-144 -145 146 22 23 24 33 -34 35 226 0
-144 -145 146 22 23 24 33 -34 -35 188 0
-144 -145 146 22 23 24 -33 34 35 188 0
-144 -145 146 22 23 24 -33 34 -35 226 0
-144 -145 146 22 23 24 -33 -34 35 147 0
-144 -145 146 22 23 24 -33 -34 -35 147 0
-144 -145 146 22 23 -24 33 34 35 147 0
-144 -145 146 22 23 -24 33 34 -35 226 0
-144 -145 146 22 23 -24 33 -34 35 241 0
-144 -145 146 22 23 -24 33 -34 -35 225 0
-144 -145 146 22 23 -24 -33 34 35 196 0
-144 -145 146 22 23 -24 -33 34 -35 164 0
-144 -145 146 22 23 -24 -33 -34 35 240 0
-144 -145 146 22 23 -24 -33 -34 -35 147 0
-144 -145 146 22 -23 24 33 34 35 226 0
-144 -145 146 22 -23 24 33 34 -35 160 0
-144 -145 146 22 -23 24 33 -34 35 195 0
-144 -145 146 22 -23 24 33 -34 -35 227 0
-144 -145 146 22 -23 24 -33 34 35 197 0
-144 -145 146 22 -23 24 -33 34 -35 237 0
-144 -145 146 22 -23 24 -33 -34 35 189 0
-144 -145 146 22 -23 24 -33 -34 -35 147 0
-144 -145 146 22 -23 -24 33 34 35 214 0
-144 -145 146 22 -23 -24 33 34 -35 173 0
-144 -145 146 22 -23 -24 33 -34 35 187 0
-144 -145 146 22 -23 -24 33 -34 -35 168 0
-144 -145 146 22 -23 -24 -33 34 35 221 0
-144 -145 146 22 -23 -24 -33 34 -35 169 0
-144 -145 146 22 -23 -24 -33 -34 35 167 0
-144 -145 146 22 -23 -24 -33 -34 -35 178 0
-144 -145 146 -22 23 24 33 34 35 226 0
-144 -145 146 -22 23 24 33 34 -35 235 0
-144 -145 146 -22 23 24 33 -34 35 237 0
-144 -145 146 -22 23 24 33 -34 -35 219 0
-144 -145 146 -22 23 24 -33 34 35 168 0
-144 -145 146 -22 23 24 -33 34 -35 185 0
-144 -145 146 -22 23 24 -33 -34 35 212 0
-144 -145 146 -22 23 24 -33 -34 -35 214 0
-144 -145 146 -22 23 -24 33 34 35 147 0
-144 -145 146 -22 23 -24 33 34 -35 214 0
-144 -145 146 -22 23 -24 33 -34 35 195 0
-144 -145 146 -22 23 -24 33 -34 -35 215 0
-144 -145 146 -22 23 -24 -33 34 35 175 0
-144 -145 146 -22 23 -24 -33 34 -35 186 0
-144 -145 146 -22 23 -24 -33 -34 35 157 0
-144 -145 146 -22 23 -24 -33 -34 -35 147 0
-144 -145 146 -22 -23 24 33 34 35 147 0
-144 -145 146 -22 -23 24 33 34 -35 214 0
-144 -145 146 -22 -23 24 33 -34 35 180 0
-144 -145 146 -22 -23 24 33 -34 -35 218 0
-144 -145 146 -22 -23 24 -33 34 35 235 0
-144 -145 146 -22 -23 24 -33 34 -35 158 0
-144 -145 146 -22 -23 24 -33 -34 35 240 0
-144 -145 146 -22 -23 24 -33 -34 -35 147 0
-144 -145 146 -22 -23 -24 33 34 35 147 0
-144 -145 146 -22 -23 -24 33 34 -35 147 0
-144 -145 146 -22 -23 -24 33 -34 35 214 0
-144 -145 146 -22 -23 -24 33 -34 -35 191 0
-144 -145 146 -22 -23 -24 -33 34 35 165 0
-144 -145 146 -22 -23 -24 -33 34 -35 199 0
-144 -145 146 -22 -23 -24 -33 -34 35 147 0
-144 -145 146 -22 -23 -24 -33 -34 -35 147 0
-144 -145 -146 22 23 24 33 34 35 147 0
-144 -145 -146 22 23 24 33 34 -35 147 0
-144 -145 -146 22 23 24 33 -34 35 226 0
-144 -145 -146 22 23 24 33 -34 -35 188 0
-144 -145 -146 22 23 24 -33 34 35 188 0
-144 -145 -146 22 23 24 -33 34 -35 226 0
-144 -145 -146 22 23 24 -33 -34 35 147 0
-144 -145 -146 22 23 24 -33 -34 -35 147 0
-144 -145 -146 22 23 -24 33 34 35 147 0
-144 -145 -146 22 23 -24 33 34 -35 226 0
-144 -145 -146 22 23 -24 33 -34 35 241 0
-144 -145 -146 22 23 -24 33 -34 -35 225 0
-144 -145 -146 22 23 -24 -33 34 35 196 0
-144 -145 -146 22 23 -24 -33 34 -35 164 0
-144 -145 -146 22 23 -24 -33 -34 35 191 0
-144 -145 -146 22 23 -24 -33 -34 -35 147 0
-144 -145 -146 22 -23 24 33 34 35 226 0
-144 -145 -146 22 -23 24 33 34 -35 160 0
-144 -145 -146 22 -23 24 33 -34 35 195 0
-144 -145 -146 22 -23 24 33 -34 -35 227 0
-144 -145 -146 22 -23 24 -33 34 35 197 0
-144 -145 -146 22 -23 24 -33 34 -35 237 0
-144 -145 -146 22 -23 24 -33 -34 35 177 0
-144 -145 -146 22 -23 24 -33 -34 -35 147 0
-144 -145 -146 22 -23 -24 33 34 35 214 0
-144 -145 -146 22 -23 -24 33 34 -35 173 0
-144 -145 -146 22 -23 -24 33 -34 35 187 0
-144 -145 -146 22 -23 -24 33 -34 -35 168 0
-144 -145 -146 22 -23 -24 -33 34 35 221 0
-144 -145 -146 22 -23 -24 -33 34 -35 162 0
-144 -145 -146 22 -23 -24 -33 -34 35 191 0
-144 -145 -146 22 -23 -24 -33 -34 -35 220 0
-144 -145 -146 -22 23 24 33 34 35 226 0
-144 -145 -146 -22 23 24 33 34 -35 235 0
-144 -145 -146 -22 23 24 33 -34 35 237 0
-144 -145 -146 -22 23 24 33 -34 -35 219 0
-144 -145 -146 -22 23 24 -33 34 35 168 0
-144 -145 -146 -22 23 24 -33 34 -35 179 0
-144 -145 -146 -22 23 24 -33 -34 35 236 0
-144 -145 -146 -22 23 24 -33 -34 -35 233 0
-144 -145 -146 -22 23 -24 33 34 35 147 0
-144 -145 -146 -22 23 -24 33 34 -35 214 0
-144 -145 -146 -22 23 -24 33 -34 35 195 0
-144 -145 -146 -22 23 -24 33 -34 -35 215 0
-144 -145 -146 -22 23 -24 -33 34 35 175 0
-144 -145 -146 -22 23 -24 -33 34 -35 196 0
-144 -145 -146 -22 23 -24 -33 -34 35 159 0
-144 -145 -146 -22 23 -24 -33 -34 -35 147 0
-144 -145 -146 -22 -23 24 33 34 35 147 0
-144 -145 -146 -22 -23 24 33 34 -35 214 0
-144 -145 -146 -22 -23 24 33 -34 35 180 0
-144 -145 -146 -22 -23 24 33 -34 -35 218 0
-144 -145 -146 -22 -23 24 -33 34 35 235 0
-144 -145 -146 -22 -23 24 -33 34 -35 148 0
-144 -145 -146 -22 -23 24 -33 -34 35 228 0
-144 -145 -146 -22 -23 24 -33 -34 -35 147 0
-144 -145 -146 -22 -23 -24 33 34 35 147 0
-144 -145 -146 -22 -23 -24 33 34 -35 147 0
-144 -145 -146 -22 -23 -24 33 -34 35 214 0
-144 -145 -146 -22 -23 -24 33 -34 -35 191 0
-144 -145 -146 -22 -23 -24 -33 34 35 165 0
-144 -145 -146 -22 -23 -24 -33 34 -35 226 0
-144 -145 -146 -22 -23 -24 -33 -34 35 147 0
-144 -145 -146 -22 -23 -24 -33 -34 -35 147 0
